CapLotSizing_PM/src/Instancias/NCLSLT/6i18p2m/NBB02.OUT
 CG ITER, OVMR, OVMRUB =           1   24582.0136719   24582.0117188
 CG ITER, OVMR, OVMRUB =           2   24582.0117188   24582.0117188
 CG ITER, OVMR, OVMRUB =           3   24582.0117188   24582.0117188
 CG ITER, OVMR, OVMRUB =           4   24582.0117188   24582.0117188
 CG ITER, OVMR, OVMRUB =           5   19982.9160156   24582.0117188
 CG ITER, OVMR, OVMRUB =           6   20842.0019531   24582.0117188
 CG ITER, OVMR, OVMRUB =           7   21496.3847656   24582.0117188
 CG ITER, OVMR, OVMRUB =           8   21679.9042969   24582.0117188
 CG ITER, OVMR, OVMRUB =           9   21978.9003906   24582.0117188
 CG ITER, OVMR, OVMRUB =          10   16717.9882812   24582.0117188
 CG ITER, OVMR, OVMRUB =          11   17089.2929688   24582.0117188
 CG ITER, OVMR, OVMRUB =          12   17364.7011719   24582.0117188
 CG ITER, OVMR, OVMRUB =          13   17625.5742188   24582.0117188
 CG ITER, OVMR, OVMRUB =          14   17916.4101562   24582.0117188
 CG ITER, OVMR, OVMRUB =          15   18199.9609375   24582.0117188
 CG ITER, OVMR, OVMRUB =          16   18521.6308594   24582.0117188
 CG ITER, OVMR, OVMRUB =          17   18804.7773438   24582.0117188
 CG ITER, OVMR, OVMRUB =          18   19114.9746094   24582.0117188
 CG ITER, OVMR, OVMRUB =          19   19370.6679688   24582.0117188
 CG ITER, OVMR, OVMRUB =          20   19621.9277344   24582.0117188
 CG ITER, OVMR, OVMRUB =          21   19865.6562500   24582.0117188
 CG ITER, OVMR, OVMRUB =          22   20128.6347656   24582.0117188
 CG ITER, OVMR, OVMRUB =          23   20346.9296875   24062.0468750
 CG ITER, OVMR, OVMRUB =          24   20574.1738281   24062.0468750
 CG ITER, OVMR, OVMRUB =          25   20762.7480469   24062.0468750
 CG ITER, OVMR, OVMRUB =          26   20976.3691406   24062.0468750
 CG ITER, OVMR, OVMRUB =          27   21140.5058594   24062.0468750
 CG ITER, OVMR, OVMRUB =          28   21310.6621094   24062.0468750
 CG ITER, OVMR, OVMRUB =          29   21449.5625000   24062.0468750
 CG ITER, OVMR, OVMRUB =          30   21560.7285156   24062.0468750
 CG ITER, OVMR, OVMRUB =          31   21661.6191406   24062.0468750
 CG ITER, OVMR, OVMRUB =          32   21741.9980469   24062.0468750
 CG ITER, OVMR, OVMRUB =          33   21818.8750000   23966.2480469
 CG ITER, OVMR, OVMRUB =          34   21904.7636719   23966.2480469
 CG ITER, OVMR, OVMRUB =          35   21970.8730469   23966.2480469
 CG ITER, OVMR, OVMRUB =          36   22037.1308594   23966.2480469
 CG ITER, OVMR, OVMRUB =          37   22098.0058594   23966.2480469
 CG ITER, OVMR, OVMRUB =          38   22129.8710938   23966.2480469
 CG ITER, OVMR, OVMRUB =          39   22122.3964844   23966.2480469
 CG ITER, OVMR, OVMRUB =          40   22120.4375000   23966.2480469
 CG ITER, OVMR, OVMRUB =          41   22120.1718750   23966.2480469
 CG ITER, OVMR, OVMRUB =          42   22113.9101562   23966.2480469
 CG ITER, OVMR, OVMRUB =          43   22113.5488281   23914.2480469
 CG ITER, OVMR, OVMRUB =          44   22113.5488281   23651.0488281
OVLB =   22113.5488281 OVLUB =   23651.0488281 TIME =       7.5100002
